branch-and-cut/resultados/I080/i080-104.sol
2486
16
3 53
4 45
1 15
61 36
66 45
8 36
61 44
15 45
15 6
15 80
66 12
53 80
1 61
7 44
2 66
5 12
